unsat
(:cnf-encoding-aux-vars   77
 :eliminated-applications 4
 :eliminated-vars         93
 :max-memory              18.81
 :memory                  18.33
 :nlsat-conflicts         9
 :nlsat-decisions         10
 :nlsat-learned-added     8
 :nlsat-propagations      35
 :num-allocs              15237
 :rlimit-count            59132
 :time                    0.01
 :total-time              0.03)
